c RoundingSat 2
c branch HEAD
c commit c548e10
c #variables 32 #constraints 292
c #Conflicts:       1000 | #Constraints:       1291
c #Conflicts:       2000 | #Constraints:       2291
c INPROCESSING
c GARBAGE COLLECT
c cpu time 0.029768 s
c deterministic time 2806496 2.81e+06
c optimization time 7e-06 s
c total solve time 0.029007 s
c core-guided solve time 0 s
c propagation time 0.017071 s
c conflict analysis time 0.009184 s
c propagations 26304
c resolve steps 8864
c decisions 3312
c conflicts 2380
c restarts 14
c inprocessing phases 1
c input clauses 291
c input cardinalities 1
c input general constraints 0
c input average constraint length 9.70
c input average constraint degree 1.07
c learned clauses 1390
c learned cardinalities 316
c learned general constraints 674
c learned average constraint length 12.87
c learned average constraint degree 4.20
c watched constraints 275
c counting constraints 399
c gcd simplifications 53
c detected cardinalities 60
c weakened non-implied lits 12525
c weakened non-implying lits 21
c original variables 32
c clausal propagations 6237
c cardinality propagations 9350
c watched propagations 784
c counting propagations 6139
c watch lookups 929398
c watch backjump lookups 531133
c watch checks 950310
c propagation checks 203368
c constraint additions 130674
c trail pops 31996
c formula constraints 292
c learned constraints 2380
c bound constraints 0
c core-guided constraints 0
c encountered formula constraints 4798
c encountered learned constraints 6446
c encountered bound constraints 0
c encountered core-guided constraints 0
c LP total time 0 s
c LP solve time 0 s
c LP constraints added 0
c LP constraints removed 0
c LP pivots internal 0
c LP pivots root 0
c LP calls 0
c LP optimalities 0
c LP no pivot count 0
c LP infeasibilities 0
c LP valid Farkas constraints 0
c LP learned Farkas constraints 0
c LP basis resets 0
c LP cycling count 0
c LP singular count 0
c LP no primal count 0
c LP no farkas count 0
c LP other issue count 0
c LP Gomory cuts 0
c LP learned cuts 0
c LP deleted cuts 0
c LP encountered Gomory constraints 0
c LP encountered Farkas constraints 0
c LP encountered learned Farkas constraints 0
c CG auxiliary variables introduced 0
c CG solutions found 0
c CG cores constructed 0
c CG core cardinality constraints returned 0
c CG unit cores 0
c CG single cores 0
c CG blocks removed during cardinality reduction 0
c CG first core best 0
c CG decision core best 0
c CG core reduction tie 0
c CG core degree average 0.00
c CG core slack average 0.00
s SATISFIABLE
v -x1 -x2 -x3 x4 x5 -x6 -x7 x8 -x9 -x10 -x11 x12 -x13 x14 -x15 -x16 x17 -x18 x19 -x20 -x21 -x22 x23 -x24 -x25 -x26 x27 x28 -x29 -x30 -x31 -x32
